c Result of efficient AIG-to-CNF conversion using package CNF
p cnf 461 1675
-2 3 -329 336 -377 0
-2 3 329 336 377 0
2 -3 0
2 329 -377 0
2 -336 0
2 -329 377 0
3 4 -246 0
3 4 17 -174 0
-3 -4 0
-3 -17 246 0
-3 174 246 0
-4 5 9 11 12 0
4 -12 0
4 -5 0
4 -11 0
4 -9 0
-5 433 6 7 8 0
5 -433 0
5 -8 0
5 -7 0
5 -6 0
-6 446 447 448 0
6 -446 0
6 -448 0
6 -447 0
-7 437 438 439 440 0
7 -440 0
7 -439 0
7 -437 0
7 -438 0
-8 434 435 436 0
8 -434 0
8 -436 0
8 -435 0
-9 451 452 453 10 0
9 -10 0
9 -453 0
9 -451 0
9 -452 0
-10 454 455 0
10 -454 0
10 -455 0
-11 449 450 0
11 -449 0
11 -450 0
-12 13 14 15 16 0
12 -16 0
12 -13 0
12 -15 0
12 -14 0
-13 441 442 0
13 -441 0
13 -442 0
-14 443 444 445 0
14 -443 0
14 -445 0
14 -444 0
-15 429 430 0
15 -429 0
15 -430 0
-16 431 432 0
16 -431 0
16 -432 0
17 18 -169 0
17 -18 169 0
-17 -18 -169 0
-17 18 169 0
-18 19 164 0
18 -19 0
18 -164 0
-19 20 159 0
19 -20 0
19 -159 0
-20 21 154 0
20 -21 0
20 -154 0
-21 22 149 0
21 -22 0
21 -149 0
-22 23 144 0
22 -23 0
22 -144 0
-23 24 139 0
23 -24 0
23 -139 0
-24 25 134 0
24 -25 0
24 -134 0
-25 26 129 0
25 -26 0
25 -129 0
-26 27 124 0
26 -27 0
26 -124 0
-27 28 109 114 119 0
27 -119 0
27 -114 0
27 -28 0
27 -109 0
-28 -29 34 104 0
-28 34 100 104 0
28 -34 0
28 -104 0
28 29 -100 0
-29 456 13 30 31 0
29 -456 0
29 -31 0
29 -30 0
29 -13 0
-30 449 450 8 0
30 -8 0
30 -450 0
30 -449 0
-31 6 7 14 32 0
31 -32 0
31 -6 0
31 -14 0
31 -7 0
-32 429 430 9 33 0
32 -429 0
32 -33 0
32 -9 0
32 -430 0
-33 431 432 433 0
33 -431 0
33 -433 0
33 -432 0
-34 -29 35 0
-34 35 92 96 0
34 -35 0
34 29 -96 0
34 29 -92 0
-35 -29 36 0
-35 36 84 88 0
35 -36 0
35 29 -88 0
35 29 -84 0
-36 -29 37 0
-36 37 76 80 0
36 -37 0
36 29 -80 0
36 29 -76 0
-37 -29 38 0
-37 38 68 72 0
37 -38 0
37 29 -72 0
37 29 -68 0
-38 -29 39 0
-38 39 60 64 0
38 -39 0
38 29 -64 0
38 29 -60 0
-39 -29 40 0
-39 40 50 55 0
39 -40 0
39 29 -55 0
39 29 -50 0
-40 -29 0
-40 41 43 46 0
40 -41 29 0
40 29 -43 0
40 29 -46 0
41 457 -42 0
-41 -457 0
-41 42 0
42 -428 458 459 460 0
-42 -460 0
-42 -459 0
-42 428 0
-42 -458 0
43 457 -44 0
-43 -457 0
-43 44 0
44 458 -45 0
-44 -458 0
-44 45 0
45 -427 459 460 0
45 -428 459 -460 0
-45 -459 0
-45 428 -460 0
-45 427 460 0
46 457 -47 0
-46 -457 0
-46 47 0
47 458 -48 0
-47 -458 0
-47 48 0
-48 459 49 0
-48 -459 -460 0
-48 428 -459 0
48 459 -49 0
48 -428 -459 460 0
49 -427 -460 0
49 -426 460 0
-49 426 460 0
-49 427 -460 0
50 457 -51 0
-50 -457 0
-50 51 0
51 458 -52 0
-51 -458 0
-51 52 0
52 -459 -53 0
52 459 -54 0
-52 -459 53 0
-52 459 54 0
-53 427 460 0
-53 428 -460 0
53 -428 -460 0
53 -427 460 0
54 -426 -460 0
54 -425 460 0
-54 425 460 0
-54 426 -460 0
55 457 -56 0
-55 -457 0
-55 56 0
-56 458 58 0
-56 -458 57 0
56 -458 -57 0
56 458 -58 0
57 -428 459 460 0
-57 428 0
-57 -460 0
-57 -459 0
58 -459 -49 0
58 459 -59 0
-58 459 59 0
-58 -459 49 0
59 -425 -460 0
59 -424 460 0
-59 424 460 0
-59 425 -460 0
60 457 -61 0
-60 -457 0
-60 61 0
61 -458 -45 0
61 458 -62 0
-61 458 62 0
-61 -458 45 0
62 -459 -54 0
62 459 -63 0
-62 459 63 0
-62 -459 54 0
63 -424 -460 0
63 -423 460 0
-63 423 460 0
-63 424 -460 0
64 457 -65 0
-64 -457 0
-64 65 0
65 -458 -48 0
65 458 -66 0
-65 -458 48 0
-65 458 66 0
66 -459 -59 0
66 459 -67 0
-66 459 67 0
-66 -459 59 0
67 -423 -460 0
67 -422 460 0
-67 422 460 0
-67 423 -460 0
68 457 -69 0
-68 -457 0
-68 69 0
69 -458 -52 0
69 458 -70 0
-69 458 70 0
-69 -458 52 0
70 -459 -63 0
70 459 -71 0
-70 459 71 0
-70 -459 63 0
71 -422 -460 0
71 -421 460 0
-71 421 460 0
-71 422 -460 0
-72 457 73 0
-72 -457 42 0
72 -457 -42 0
72 457 -73 0
73 -458 -58 0
73 458 -74 0
-73 458 74 0
-73 -458 58 0
74 -459 -67 0
74 459 -75 0
-74 459 75 0
-74 -459 67 0
75 -421 -460 0
75 -420 460 0
-75 420 460 0
-75 421 -460 0
76 -457 -44 0
76 457 -77 0
-76 457 77 0
-76 -457 44 0
77 -458 -62 0
77 458 -78 0
-77 458 78 0
-77 -458 62 0
78 -459 -71 0
78 459 -79 0
-78 459 79 0
-78 -459 71 0
79 -420 -460 0
79 -419 460 0
-79 419 460 0
-79 420 -460 0
80 -457 -47 0
80 457 -81 0
-80 457 81 0
-80 -457 47 0
81 -458 -66 0
81 458 -82 0
-81 458 82 0
-81 -458 66 0
82 -459 -75 0
82 459 -83 0
-82 459 83 0
-82 -459 75 0
83 -419 -460 0
83 -418 460 0
-83 418 460 0
-83 419 -460 0
84 -457 -51 0
84 457 -85 0
-84 457 85 0
-84 -457 51 0
85 -458 -70 0
85 458 -86 0
-85 458 86 0
-85 -458 70 0
86 -459 -79 0
86 459 -87 0
-86 459 87 0
-86 -459 79 0
87 -418 -460 0
87 -417 460 0
-87 417 460 0
-87 418 -460 0
88 -457 -56 0
88 457 -89 0
-88 -457 56 0
-88 457 89 0
89 -458 -74 0
89 458 -90 0
-89 458 90 0
-89 -458 74 0
90 -459 -83 0
90 459 -91 0
-90 459 91 0
-90 -459 83 0
91 -417 -460 0
91 -416 460 0
-91 416 460 0
-91 417 -460 0
92 -457 -61 0
92 457 -93 0
-92 457 93 0
-92 -457 61 0
93 -458 -78 0
93 458 -94 0
-93 458 94 0
-93 -458 78 0
94 -459 -87 0
94 459 -95 0
-94 459 95 0
-94 -459 87 0
95 -416 -460 0
95 -415 460 0
-95 415 460 0
-95 416 -460 0
96 -457 -65 0
96 457 -97 0
-96 457 97 0
-96 -457 65 0
97 -458 -82 0
97 458 -98 0
-97 458 98 0
-97 -458 82 0
98 -459 -91 0
98 459 -99 0
-98 459 99 0
-98 -459 91 0
99 -415 -460 0
99 -414 460 0
-99 414 460 0
-99 415 -460 0
100 -457 -69 0
100 457 -101 0
-100 457 101 0
-100 -457 69 0
101 -458 -86 0
101 458 -102 0
-101 458 102 0
-101 -458 86 0
102 -459 -95 0
102 459 -103 0
-102 459 103 0
-102 -459 95 0
103 -414 -460 0
103 -413 460 0
-103 413 460 0
-103 414 -460 0
104 456 4 -105 0
104 -456 4 -41 0
-104 -4 0
-104 456 105 0
-104 -456 41 0
-105 457 106 0
-105 -457 73 0
105 -457 -73 0
105 457 -106 0
106 -458 -90 0
106 458 -107 0
-106 458 107 0
-106 -458 90 0
107 -459 -99 0
107 459 -108 0
-107 459 108 0
-107 -459 99 0
108 -413 -460 0
108 -412 460 0
-108 412 460 0
-108 413 -460 0
109 456 4 -110 0
109 -456 4 -43 0
-109 -4 0
-109 -456 43 0
-109 456 110 0
110 -457 -77 0
110 457 -111 0
-110 457 111 0
-110 -457 77 0
111 -458 -94 0
111 458 -112 0
-111 458 112 0
-111 -458 94 0
112 -459 -103 0
112 459 -113 0
-112 459 113 0
-112 -459 103 0
113 -412 -460 0
113 -411 460 0
-113 411 460 0
-113 412 -460 0
114 456 4 -115 0
114 -456 4 -46 0
-114 -4 0
-114 -456 46 0
-114 456 115 0
115 -457 -81 0
115 457 -116 0
-115 457 116 0
-115 -457 81 0
116 -458 -98 0
116 458 -117 0
-116 458 117 0
-116 -458 98 0
117 -459 -108 0
117 459 -118 0
-117 459 118 0
-117 -459 108 0
118 -411 -460 0
118 -410 460 0
-118 410 460 0
-118 411 -460 0
119 456 4 -120 0
119 -456 4 -50 0
-119 -4 0
-119 -456 50 0
-119 456 120 0
120 -457 -85 0
120 457 -121 0
-120 457 121 0
-120 -457 85 0
121 -458 -102 0
121 458 -122 0
-121 458 122 0
-121 -458 102 0
122 -459 -113 0
122 459 -123 0
-122 459 123 0
-122 -459 113 0
123 -410 -460 0
123 -409 460 0
-123 409 460 0
-123 410 -460 0
124 456 4 -125 0
124 -456 4 -55 0
-124 -4 0
-124 -456 55 0
-124 456 125 0
125 -457 -89 0
125 457 -126 0
-125 457 126 0
-125 -457 89 0
126 -458 -107 0
126 458 -127 0
-126 458 127 0
-126 -458 107 0
127 -459 -118 0
127 459 -128 0
-127 459 128 0
-127 -459 118 0
128 -409 -460 0
128 -408 460 0
-128 408 460 0
-128 409 -460 0
129 456 4 -130 0
129 -456 4 -60 0
-129 -4 0
-129 -456 60 0
-129 456 130 0
130 -457 -93 0
130 457 -131 0
-130 457 131 0
-130 -457 93 0
131 -458 -112 0
131 458 -132 0
-131 458 132 0
-131 -458 112 0
132 -459 -123 0
132 459 -133 0
-132 459 133 0
-132 -459 123 0
133 -408 -460 0
133 -407 460 0
-133 407 460 0
-133 408 -460 0
134 456 4 -135 0
134 -456 4 -64 0
-134 -4 0
-134 -456 64 0
-134 456 135 0
135 -457 -97 0
135 457 -136 0
-135 457 136 0
-135 -457 97 0
136 -458 -117 0
136 458 -137 0
-136 458 137 0
-136 -458 117 0
137 -459 -128 0
137 459 -138 0
-137 459 138 0
-137 -459 128 0
138 -407 -460 0
138 -406 460 0
-138 406 460 0
-138 407 -460 0
139 456 4 -140 0
139 -456 4 -68 0
-139 -4 0
-139 -456 68 0
-139 456 140 0
140 -457 -101 0
140 457 -141 0
-140 457 141 0
-140 -457 101 0
141 -458 -122 0
141 458 -142 0
-141 458 142 0
-141 -458 122 0
142 -459 -133 0
142 459 -143 0
-142 459 143 0
-142 -459 133 0
143 -406 -460 0
143 -405 460 0
-143 405 460 0
-143 406 -460 0
144 456 4 -145 0
144 -456 4 -72 0
-144 -4 0
-144 456 145 0
-144 -456 72 0
-145 -457 106 0
-145 457 146 0
145 -457 -106 0
145 457 -146 0
-146 458 147 0
-146 -458 127 0
146 -458 -127 0
146 458 -147 0
147 -459 -138 0
147 459 -148 0
-147 459 148 0
-147 -459 138 0
148 -405 -460 0
148 -404 460 0
-148 404 460 0
-148 405 -460 0
149 456 4 -150 0
149 -456 4 -76 0
-149 -4 0
-149 456 150 0
-149 -456 76 0
-150 -457 111 0
-150 457 151 0
150 -457 -111 0
150 457 -151 0
-151 458 152 0
-151 -458 132 0
151 -458 -132 0
151 458 -152 0
152 -459 -143 0
152 459 -153 0
-152 459 153 0
-152 -459 143 0
153 -404 -460 0
153 -403 460 0
-153 403 460 0
-153 404 -460 0
154 456 4 -155 0
154 -456 4 -80 0
-154 -4 0
-154 456 155 0
-154 -456 80 0
-155 -457 116 0
-155 457 156 0
155 -457 -116 0
155 457 -156 0
-156 458 157 0
-156 -458 137 0
156 -458 -137 0
156 458 -157 0
157 -459 -148 0
157 459 -158 0
-157 459 158 0
-157 -459 148 0
158 -403 -460 0
158 -402 460 0
-158 402 460 0
-158 403 -460 0
159 456 4 -160 0
159 -456 4 -84 0
-159 -4 0
-159 456 160 0
-159 -456 84 0
-160 -457 121 0
-160 457 161 0
160 -457 -121 0
160 457 -161 0
-161 458 162 0
-161 -458 142 0
161 -458 -142 0
161 458 -162 0
162 -459 -153 0
162 459 -163 0
-162 459 163 0
-162 -459 153 0
163 -402 -460 0
163 -401 460 0
-163 401 460 0
-163 402 -460 0
164 456 4 -165 0
164 -456 4 -88 0
-164 -4 0
-164 456 165 0
-164 -456 88 0
-165 -457 126 0
-165 457 166 0
165 -457 -126 0
165 457 -166 0
-166 -458 147 0
-166 458 167 0
166 -458 -147 0
166 458 -167 0
-167 459 168 0
-167 -459 158 0
167 -459 -158 0
167 459 -168 0
168 -401 -460 0
168 -400 460 0
-168 400 460 0
-168 401 -460 0
169 456 4 -170 0
169 -456 4 -92 0
-169 -4 0
-169 456 170 0
-169 -456 92 0
-170 -457 131 0
-170 457 171 0
170 -457 -131 0
170 457 -171 0
-171 -458 152 0
-171 458 172 0
171 -458 -152 0
171 458 -172 0
-172 459 173 0
-172 -459 163 0
172 -459 -163 0
172 459 -173 0
173 -400 -460 0
173 -399 460 0
-173 399 460 0
-173 400 -460 0
-174 456 -234 0
-174 -456 175 0
-174 456 207 0
174 -456 -175 0
174 456 -207 234 0
175 457 -176 0
175 -457 -198 0
-175 -457 198 0
-175 457 176 0
176 458 -177 0
176 -458 -193 0
-176 -458 193 0
-176 458 177 0
177 459 -178 0
177 -459 -191 0
-177 -459 191 0
-177 459 178 0
178 -460 -190 0
178 -415 460 179 0
178 415 460 -179 0
-178 -460 190 0
-178 -415 460 -179 0
-178 415 460 179 0
-179 416 180 0
179 -416 0
179 -180 0
-180 417 181 0
180 -417 0
180 -181 0
-181 418 182 0
181 -418 0
181 -182 0
-182 419 183 0
182 -419 0
182 -183 0
-183 420 184 0
183 -420 0
183 -184 0
-184 421 185 0
184 -421 0
184 -185 0
-185 422 186 0
185 -422 0
185 -186 0
-186 423 187 0
186 -423 0
186 -187 0
-187 424 188 0
187 -424 0
187 -188 0
-188 425 189 0
188 -425 0
188 -189 0
-189 426 427 428 0
189 -426 0
189 -428 0
189 -427 0
190 -416 180 0
190 416 -180 0
-190 416 180 0
-190 -416 -180 0
191 -460 -192 0
191 -417 460 181 0
191 417 460 -181 0
-191 -460 192 0
-191 -417 460 -181 0
-191 417 460 181 0
192 -418 182 0
192 418 -182 0
-192 418 182 0
-192 -418 -182 0
193 459 -194 0
193 -459 -196 0
-193 -459 196 0
-193 459 194 0
194 -460 -195 0
194 -419 460 183 0
194 419 460 -183 0
-194 -460 195 0
-194 -419 460 -183 0
-194 419 460 183 0
195 -420 184 0
195 420 -184 0
-195 420 184 0
-195 -420 -184 0
196 -460 -197 0
196 -421 460 185 0
196 421 460 -185 0
-196 -460 197 0
-196 -421 460 -185 0
-196 421 460 185 0
197 -422 186 0
197 422 -186 0
-197 422 186 0
-197 -422 -186 0
198 458 -199 0
198 -458 -205 0
-198 -458 205 0
-198 458 199 0
199 459 -200 0
199 -459 -202 0
-199 -459 202 0
-199 459 200 0
200 -460 -201 0
200 -423 460 187 0
200 423 460 -187 0
-200 -460 201 0
-200 -423 460 -187 0
-200 423 460 187 0
201 -424 188 0
201 424 -188 0
-201 424 188 0
-201 -424 -188 0
202 460 -204 0
202 426 -460 -203 0
202 -426 -460 203 0
-202 460 204 0
-202 426 -460 203 0
-202 -426 -460 -203 0
-203 427 428 0
203 -427 0
203 -428 0
204 -425 189 0
204 425 -189 0
-204 425 189 0
-204 -425 -189 0
205 459 -206 0
-205 -459 0
-205 206 0
-206 428 -460 0
-206 427 428 0
-206 -427 -428 460 0
206 427 -428 0
206 -428 -460 0
206 -427 428 460 0
-207 457 -458 229 0
-207 457 458 208 0
207 -457 0
207 -458 -229 0
207 458 -208 0
208 459 -209 0
208 -459 -227 0
-208 -459 227 0
-208 459 209 0
209 -460 -226 0
209 -399 460 210 0
209 399 460 -210 0
-209 -460 226 0
-209 -399 460 -210 0
-209 399 460 210 0
-210 400 211 0
210 -400 0
210 -211 0
-211 401 212 0
211 -401 0
211 -212 0
-212 402 213 0
212 -402 0
212 -213 0
-213 403 214 0
213 -403 0
213 -214 0
-214 404 215 0
214 -404 0
214 -215 0
-215 405 216 0
215 -405 0
215 -216 0
-216 406 217 0
216 -406 0
216 -217 0
-217 407 218 0
217 -407 0
217 -218 0
-218 408 219 0
218 -408 0
218 -219 0
-219 409 220 0
219 -409 0
219 -220 0
-220 410 221 0
220 -410 0
220 -221 0
-221 411 222 0
221 -411 0
221 -222 0
-222 412 223 0
222 -412 0
222 -223 0
-223 413 224 0
223 -413 0
223 -224 0
-224 414 225 0
224 -414 0
224 -225 0
-225 415 179 0
225 -415 0
225 -179 0
226 -400 211 0
226 400 -211 0
-226 400 211 0
-226 -400 -211 0
227 -460 -228 0
227 -401 460 212 0
227 401 460 -212 0
-227 -460 228 0
-227 -401 460 -212 0
-227 401 460 212 0
228 -402 213 0
228 402 -213 0
-228 402 213 0
-228 -402 -213 0
229 459 -230 0
229 -459 -232 0
-229 -459 232 0
-229 459 230 0
230 -460 -231 0
230 -403 460 214 0
230 403 460 -214 0
-230 -460 231 0
-230 -403 460 -214 0
-230 403 460 214 0
231 -404 215 0
231 404 -215 0
-231 404 215 0
-231 -404 -215 0
232 -460 -233 0
232 -405 460 216 0
232 405 460 -216 0
-232 -460 233 0
-232 -405 460 -216 0
-232 405 460 216 0
233 -406 217 0
233 406 -217 0
-233 406 217 0
-233 -406 -217 0
234 -457 235 0
-234 457 0
-234 -235 0
235 458 -236 0
235 -458 -241 0
-235 -458 241 0
-235 458 236 0
236 459 -237 0
236 -459 -239 0
-236 -459 239 0
-236 459 237 0
237 -460 -238 0
237 -407 460 218 0
237 407 460 -218 0
-237 -460 238 0
-237 -407 460 -218 0
-237 407 460 218 0
238 -408 219 0
238 408 -219 0
-238 408 219 0
-238 -408 -219 0
239 -460 -240 0
239 -409 460 220 0
239 409 460 -220 0
-239 -460 240 0
-239 -409 460 -220 0
-239 409 460 220 0
240 -410 221 0
240 410 -221 0
-240 410 221 0
-240 -410 -221 0
241 459 -242 0
241 -459 -244 0
-241 -459 244 0
-241 459 242 0
242 -460 -243 0
242 -411 460 222 0
242 411 460 -222 0
-242 -460 243 0
-242 -411 460 -222 0
-242 411 460 222 0
243 -412 223 0
243 412 -223 0
-243 412 223 0
-243 -412 -223 0
244 -460 -245 0
244 -413 460 224 0
244 413 460 -224 0
-244 -460 245 0
-244 -413 460 -224 0
-244 413 460 224 0
245 -414 225 0
245 414 -225 0
-245 414 225 0
-245 -414 -225 0
-246 247 -303 316 0
-246 247 304 316 0
246 -316 0
246 -247 0
246 303 -304 0
-247 249 -290 0
-247 -248 291 0
-247 -248 -290 0
-247 249 291 0
247 290 -291 0
247 248 -249 0
248 19 -164 0
248 -19 164 0
-248 -19 -164 0
-248 19 164 0
-249 456 -278 0
-249 -456 250 0
-249 456 267 0
249 -456 -250 0
249 456 -267 278 0
250 457 -251 0
250 -457 -262 0
-250 -457 262 0
-250 457 251 0
251 458 -252 0
251 -458 -257 0
-251 -458 257 0
-251 458 252 0
252 459 -253 0
252 -459 -255 0
-252 -459 255 0
-252 459 253 0
253 -460 -254 0
253 -416 460 180 0
253 416 460 -180 0
-253 -460 254 0
-253 -416 460 -180 0
-253 416 460 180 0
254 -417 181 0
254 417 -181 0
-254 417 181 0
-254 -417 -181 0
255 -460 -256 0
255 -418 460 182 0
255 418 460 -182 0
-255 -460 256 0
-255 -418 460 -182 0
-255 418 460 182 0
256 -419 183 0
256 419 -183 0
-256 419 183 0
-256 -419 -183 0
257 459 -258 0
257 -459 -260 0
-257 -459 260 0
-257 459 258 0
258 -460 -259 0
258 -420 460 184 0
258 420 460 -184 0
-258 -460 259 0
-258 -420 460 -184 0
-258 420 460 184 0
259 -421 185 0
259 421 -185 0
-259 421 185 0
-259 -421 -185 0
260 -460 -261 0
260 -422 460 186 0
260 422 460 -186 0
-260 -460 261 0
-260 -422 460 -186 0
-260 422 460 186 0
261 -423 187 0
261 423 -187 0
-261 423 187 0
-261 -423 -187 0
-262 458 263 0
-262 -458 57 0
262 -458 -57 0
262 458 -263 0
263 459 -264 0
263 -459 -265 0
-263 -459 265 0
-263 459 264 0
264 -460 -204 0
264 -424 460 188 0
264 424 460 -188 0
-264 -460 204 0
-264 -424 460 -188 0
-264 424 460 188 0
265 460 -266 0
265 427 -428 -460 0
265 -427 428 -460 0
-265 460 266 0
-265 -427 -428 -460 0
-265 427 428 -460 0
266 -426 203 0
266 426 -203 0
-266 426 203 0
-266 -426 -203 0
-267 457 -458 273 0
-267 457 458 268 0
267 -457 0
267 -458 -273 0
267 458 -268 0
268 459 -269 0
268 -459 -271 0
-268 -459 271 0
-268 459 269 0
269 -460 -270 0
269 -400 460 211 0
269 400 460 -211 0
-269 -460 270 0
-269 -400 460 -211 0
-269 400 460 211 0
270 -401 212 0
270 401 -212 0
-270 401 212 0
-270 -401 -212 0
271 -460 -272 0
271 -402 460 213 0
271 402 460 -213 0
-271 -460 272 0
-271 -402 460 -213 0
-271 402 460 213 0
272 -403 214 0
272 403 -214 0
-272 403 214 0
-272 -403 -214 0
273 459 -274 0
273 -459 -276 0
-273 -459 276 0
-273 459 274 0
274 -460 -275 0
274 -404 460 215 0
274 404 460 -215 0
-274 -460 275 0
-274 -404 460 -215 0
-274 404 460 215 0
275 -405 216 0
275 405 -216 0
-275 405 216 0
-275 -405 -216 0
276 -460 -277 0
276 -406 460 217 0
276 406 460 -217 0
-276 -460 277 0
-276 -406 460 -217 0
-276 406 460 217 0
277 -407 218 0
277 407 -218 0
-277 407 218 0
-277 -407 -218 0
278 -457 279 0
-278 457 0
-278 -279 0
279 458 -280 0
279 -458 -285 0
-279 -458 285 0
-279 458 280 0
280 459 -281 0
280 -459 -283 0
-280 -459 283 0
-280 459 281 0
281 -460 -282 0
281 -408 460 219 0
281 408 460 -219 0
-281 -460 282 0
-281 -408 460 -219 0
-281 408 460 219 0
282 -409 220 0
282 409 -220 0
-282 409 220 0
-282 -409 -220 0
283 -460 -284 0
283 -410 460 221 0
283 410 460 -221 0
-283 -460 284 0
-283 -410 460 -221 0
-283 410 460 221 0
284 -411 222 0
284 411 -222 0
-284 411 222 0
-284 -411 -222 0
285 459 -286 0
285 -459 -288 0
-285 -459 288 0
-285 459 286 0
286 -460 -287 0
286 -412 460 223 0
286 412 460 -223 0
-286 -460 287 0
-286 -412 460 -223 0
-286 412 460 223 0
287 -413 224 0
287 413 -224 0
-287 413 224 0
-287 -413 -224 0
288 -460 -289 0
288 -414 460 225 0
288 414 460 -225 0
-288 -460 289 0
-288 -414 460 -225 0
-288 414 460 225 0
289 -415 179 0
289 415 -179 0
-289 415 179 0
-289 -415 -179 0
290 21 -154 0
290 -21 154 0
-290 -21 -154 0
-290 21 154 0
-291 -456 292 0
-291 456 300 0
-291 456 -297 0
291 -456 -292 0
291 456 297 -300 0
-292 -457 -458 0
-292 457 294 0
-292 -457 293 0
292 457 -294 0
292 -457 458 -293 0
-293 459 265 0
-293 -459 -460 0
-293 428 -459 0
293 459 -265 0
293 -428 -459 460 0
294 458 -295 0
294 -458 -296 0
-294 -458 296 0
-294 458 295 0
295 459 -255 0
295 -459 -258 0
-295 -459 258 0
-295 459 255 0
296 459 -260 0
296 -459 -264 0
-296 -459 264 0
-296 459 260 0
297 -457 -458 299 0
297 -457 458 298 0
-297 457 0
-297 -458 -299 0
-297 458 -298 0
298 459 -283 0
298 -459 -286 0
-298 -459 286 0
-298 459 283 0
299 -459 -253 0
299 459 -288 0
-299 459 288 0
-299 -459 253 0
-300 457 -458 301 0
-300 457 458 302 0
300 -457 0
300 -458 -301 0
300 458 -302 0
301 459 -276 0
301 -459 -281 0
-301 -459 281 0
-301 459 276 0
302 459 -271 0
302 -459 -274 0
-302 -459 274 0
-302 459 271 0
303 20 -159 0
303 -20 159 0
-303 -20 -159 0
-303 20 159 0
-304 -456 305 0
-304 456 313 0
-304 456 -310 0
304 -456 -305 0
304 456 310 -313 0
-305 -457 -458 0
-305 457 307 0
-305 -457 306 0
305 457 -307 0
305 -457 458 -306 0
306 459 -202 0
306 -459 -206 0
-306 -459 206 0
-306 459 202 0
307 458 -308 0
307 -458 -309 0
-307 -458 309 0
-307 458 308 0
308 459 -191 0
308 -459 -194 0
-308 -459 194 0
-308 459 191 0
309 459 -196 0
309 -459 -200 0
-309 -459 200 0
-309 459 196 0
310 -457 -458 312 0
310 -457 458 311 0
-310 457 0
-310 -458 -312 0
-310 458 -311 0
311 459 -239 0
311 -459 -242 0
-311 -459 242 0
-311 459 239 0
312 -459 -178 0
312 459 -244 0
-312 459 244 0
-312 -459 178 0
-313 457 -458 314 0
-313 457 458 315 0
313 -457 0
313 -458 -314 0
313 458 -315 0
314 459 -232 0
314 -459 -237 0
-314 -459 237 0
-314 459 232 0
315 459 -227 0
315 -459 -230 0
-315 -459 230 0
-315 459 227 0
-316 318 -323 0
-316 -317 324 0
-316 -317 -323 0
-316 318 324 0
316 323 -324 0
316 317 -318 0
317 22 -149 0
317 -22 149 0
-317 -22 -149 0
-317 22 149 0
-318 -456 319 0
-318 456 322 0
-318 456 -321 0
318 -456 -319 0
318 456 321 -322 0
-319 -457 -458 0
-319 457 320 0
-319 -457 205 0
319 457 -320 0
319 -457 458 -205 0
320 458 -193 0
320 -458 -199 0
-320 -458 199 0
-320 458 193 0
321 -457 458 241 0
321 -457 -458 177 0
-321 457 0
-321 -458 -177 0
-321 458 -241 0
-322 457 -458 236 0
-322 457 458 229 0
322 -457 0
322 -458 -236 0
322 458 -229 0
323 23 -144 0
323 -23 144 0
-323 -23 -144 0
-323 23 144 0
-324 -456 325 0
-324 456 328 0
-324 456 -327 0
324 -456 -325 0
324 456 327 -328 0
-325 457 326 0
-325 -457 42 0
325 -457 -42 0
325 457 -326 0
326 458 -257 0
326 -458 -263 0
-326 -458 263 0
-326 458 257 0
327 -457 458 285 0
327 -457 -458 252 0
-327 457 0
-327 -458 -252 0
-327 458 -285 0
-328 457 -458 280 0
-328 457 458 273 0
328 -457 0
328 -458 -280 0
328 458 -273 0
-329 330 331 0
329 -330 0
329 -331 0
-330 18 169 0
330 -18 0
330 -169 0
331 456 4 -332 0
331 -456 4 -96 0
-331 -4 0
-331 456 332 0
-331 -456 96 0
-332 -457 136 0
-332 457 333 0
332 -457 -136 0
332 457 -333 0
-333 -458 157 0
-333 458 334 0
333 -458 -157 0
333 458 -334 0
-334 459 335 0
-334 -459 168 0
334 -459 -168 0
334 459 -335 0
335 -399 -460 0
335 -398 460 0
-335 398 460 0
-335 399 -460 0
-336 17 337 0
-336 4 -174 337 0
336 -337 0
336 -17 174 0
336 -4 -17 0
-337 338 349 350 351 0
-337 -338 -349 350 351 0
337 -350 0
337 338 -349 0
337 -351 0
337 -338 349 0
338 4 -342 0
338 -456 4 -339 0
-338 -4 0
-338 339 342 0
-338 456 342 0
339 457 -340 0
339 -457 -341 0
-339 -457 341 0
-339 457 340 0
340 -458 -295 0
340 458 -299 0
-340 458 299 0
-340 -458 295 0
341 -458 -293 0
341 458 -296 0
-341 -458 293 0
-341 458 296 0
342 456 -457 -348 0
342 456 457 -343 0
-342 -456 0
-342 -457 348 0
-342 457 343 0
343 -458 -302 0
343 458 -344 0
-343 458 344 0
-343 -458 302 0
344 -459 -269 0
344 459 -345 0
-344 -459 269 0
-344 459 345 0
-345 -460 347 0
-345 -398 460 -346 0
-345 398 460 346 0
345 -460 -347 0
345 -398 460 346 0
345 398 460 -346 0
-346 399 210 0
346 -399 0
346 -210 0
347 -399 210 0
347 399 -210 0
-347 399 210 0
-347 -399 -210 0
348 -458 -298 0
348 458 -301 0
-348 458 301 0
-348 -458 298 0
349 330 -331 0
349 -330 331 0
-349 -330 -331 0
-349 330 331 0
350 -4 -303 0
350 -303 304 0
-350 303 0
-350 4 -304 0
-351 248 352 0
-351 4 -249 352 0
351 -352 0
351 -248 249 0
351 -4 -248 0
-352 290 353 0
-352 4 -291 353 0
352 -353 0
352 -290 291 0
352 -4 -290 0
-353 354 355 361 362 0
-353 354 -355 -361 362 0
353 -362 0
353 -355 361 0
353 -354 0
353 355 -361 0
354 -317 318 0
-354 317 0
-354 -318 0
355 4 -358 0
355 -456 4 -356 0
-355 -4 0
-355 356 358 0
-355 456 358 0
356 457 -357 0
-356 -457 0
-356 357 0
357 -458 -306 0
357 458 -309 0
-357 458 309 0
-357 -458 306 0
358 456 -457 -360 0
358 456 457 -359 0
-358 -456 0
-358 -457 360 0
-358 457 359 0
359 -458 -311 0
359 458 -314 0
-359 458 314 0
-359 -458 311 0
360 -458 -308 0
360 458 -312 0
-360 458 312 0
-360 -458 308 0
361 24 -139 0
361 -24 139 0
-361 -24 -139 0
-361 24 139 0
-362 366 367 368 0
-362 -363 367 368 0
362 -368 0
362 -367 0
362 363 -366 0
363 4 -365 0
363 -456 4 -364 0
-363 -4 0
-363 364 365 0
-363 456 365 0
364 457 -341 0
-364 -457 0
-364 341 0
365 456 457 -348 0
365 456 -457 -340 0
-365 -456 0
-365 -457 340 0
-365 457 348 0
366 25 -134 0
366 -25 134 0
-366 -25 -134 0
-366 25 134 0
367 -4 -323 0
367 -323 324 0
-367 323 0
-367 4 -324 0
-368 369 372 -373 -376 0
-368 -369 -372 -373 -376 0
-368 369 372 373 376 0
-368 -369 -372 373 376 0
368 369 -372 0
368 -369 372 0
368 373 -376 0
368 -373 376 0
369 4 -371 0
369 -456 4 -370 0
-369 -4 0
-369 370 371 0
-369 456 371 0
370 457 -198 0
-370 -457 0
-370 198 0
371 456 457 -235 0
371 456 -457 -176 0
-371 -456 0
-371 -457 176 0
-371 457 235 0
372 26 -129 0
372 -26 129 0
-372 -26 -129 0
-372 26 129 0
373 4 -375 0
373 -456 4 -374 0
-373 -4 0
-373 374 375 0
-373 456 375 0
374 457 -262 0
-374 -457 0
-374 262 0
375 456 457 -279 0
375 456 -457 -251 0
-375 -456 0
-375 -457 251 0
-375 457 279 0
376 27 -124 0
376 -27 124 0
-376 -27 -124 0
-376 27 124 0
377 429 -378 392 0
377 429 378 -392 0
-377 -429 0
-377 -378 -392 0
-377 378 392 0
378 456 379 -387 0
378 -456 379 -386 0
-378 -379 0
-378 456 387 0
-378 -456 386 0
-379 452 453 380 382 0
379 -452 0
379 -382 0
379 -380 0
379 -453 0
-380 381 8 33 0
380 -381 0
380 -8 0
380 -33 0
-381 437 438 439 0
381 -437 0
381 -439 0
381 -438 0
-382 430 383 384 385 0
382 -430 0
382 -385 0
382 -384 0
382 -383 0
-383 440 443 13 0
383 -13 0
383 -443 0
383 -440 0
-384 444 445 449 6 0
384 -6 0
384 -449 0
384 -444 0
384 -445 0
-385 450 451 454 455 0
385 -455 0
385 -454 0
385 -450 0
385 -451 0
386 -457 -357 0
386 457 -360 0
-386 457 360 0
-386 -457 357 0
-387 457 -391 0
-387 -457 359 0
-387 457 388 0
387 -457 -359 0
387 457 -388 391 0
-388 458 459 389 0
-388 458 -459 209 0
388 -458 0
388 -459 -209 0
388 459 -389 0
-389 -346 -390 0
-389 -398 -460 -346 0
-389 -398 -390 0
-389 398 346 390 0
389 -398 346 390 0
389 398 -346 390 0
389 -398 460 390 0
389 398 346 -390 0
390 -397 460 0
-390 397 0
-390 -460 0
391 -458 315 0
-391 458 0
-391 -315 0
392 456 379 -393 0
392 -456 -100 379 0
-392 -379 0
-392 456 393 0
-392 -456 100 0
-393 -457 141 0
-393 457 394 0
393 -457 -141 0
393 457 -394 0
-394 -458 162 0
-394 458 395 0
394 -458 -162 0
394 458 -395 0
-395 -459 173 0
-395 459 396 390 0
395 -459 -173 0
395 459 -390 0
395 459 -396 0
396 -398 -460 0
-396 398 0
-396 460 0
-461 0
2 0

